<instance format="XCSP3" type="COP">
  <variables>
    <array id="x" note="x[i][j] is the color is in the cell at row i and column j (0 if no queen)" size="[8][8]"> 0..3 </array>
    <array id="z" note="z[i] is the number of queens for the ith color" size="[3]"> 0..20 </array>
  </variables>
  <constraints>
    <group note="at peace on every row">
      <regular>
        <list> %... </list>
        <transitions> (q0,0,q0)(q0,1,q1)(q0,2,q2)(q0,3,q3)(q1,0,q1)(q1,1,q1)(q2,0,q2)(q2,2,q2)(q3,0,q3)(q3,3,q3) </transitions>
        <start> q0 </start>
        <final> q0 q1 q2 q3 </final>
      </regular>
      <args> x[0][] </args>
      <args> x[1][] </args>
      <args> x[2][] </args>
      <args> x[3][] </args>
      <args> x[4][] </args>
      <args> x[5][] </args>
      <args> x[6][] </args>
      <args> x[7][] </args>
    </group>
    <group note="at peace on every column">
      <regular>
        <list> %... </list>
        <transitions> (q0,0,q0)(q0,1,q1)(q0,2,q2)(q0,3,q3)(q1,0,q1)(q1,1,q1)(q2,0,q2)(q2,2,q2)(q3,0,q3)(q3,3,q3) </transitions>
        <start> q0 </start>
        <final> q0 q1 q2 q3 </final>
      </regular>
      <args> x[][0] </args>
      <args> x[][1] </args>
      <args> x[][2] </args>
      <args> x[][3] </args>
      <args> x[][4] </args>
      <args> x[][5] </args>
      <args> x[][6] </args>
      <args> x[][7] </args>
    </group>
    <group note="at peace on all down-right diagonals (except corners)">
      <regular>
        <list> %... </list>
        <transitions> (q0,0,q0)(q0,1,q1)(q0,2,q2)(q0,3,q3)(q1,0,q1)(q1,1,q1)(q2,0,q2)(q2,2,q2)(q3,0,q3)(q3,3,q3) </transitions>
        <start> q0 </start>
        <final> q0 q1 q2 q3 </final>
      </regular>
      <args> x[0][1] x[1][0] </args>
      <args> x[0][2] x[1][1] x[2][0] </args>
      <args> x[0][3] x[1][2] x[2][1] x[3][0] </args>
      <args> x[0][4] x[1][3] x[2][2] x[3][1] x[4][0] </args>
      <args> x[0][5] x[1][4] x[2][3] x[3][2] x[4][1] x[5][0] </args>
      <args> x[0][6] x[1][5] x[2][4] x[3][3] x[4][2] x[5][1] x[6][0] </args>
      <args> x[0][7] x[1][6] x[2][5] x[3][4] x[4][3] x[5][2] x[6][1] x[7][0] </args>
      <args> x[1][7] x[2][6] x[3][5] x[4][4] x[5][3] x[6][2] x[7][1] </args>
      <args> x[2][7] x[3][6] x[4][5] x[5][4] x[6][3] x[7][2] </args>
      <args> x[3][7] x[4][6] x[5][5] x[6][4] x[7][3] </args>
      <args> x[4][7] x[5][6] x[6][5] x[7][4] </args>
      <args> x[5][7] x[6][6] x[7][5] </args>
      <args> x[6][7] x[7][6] </args>
    </group>
    <group note="at peace on all up-right diagonals (except corners)">
      <regular>
        <list> %... </list>
        <transitions> (q0,0,q0)(q0,1,q1)(q0,2,q2)(q0,3,q3)(q1,0,q1)(q1,1,q1)(q2,0,q2)(q2,2,q2)(q3,0,q3)(q3,3,q3) </transitions>
        <start> q0 </start>
        <final> q0 q1 q2 q3 </final>
      </regular>
      <args> x[0][6] x[1][7] </args>
      <args> x[0][5] x[1][6] x[2][7] </args>
      <args> x[0][4] x[1][5] x[2][6] x[3][7] </args>
      <args> x[0][3] x[1][4] x[2][5] x[3][6] x[4][7] </args>
      <args> x[0][2] x[1][3] x[2][4] x[3][5] x[4][6] x[5][7] </args>
      <args> x[0][1] x[1][2] x[2][3] x[3][4] x[4][5] x[5][6] x[6][7] </args>
      <args> x[0][0] x[1][1] x[2][2] x[3][3] x[4][4] x[5][5] x[6][6] x[7][7] </args>
      <args> x[1][0] x[2][1] x[3][2] x[4][3] x[5][4] x[6][5] x[7][6] </args>
      <args> x[2][0] x[3][1] x[4][2] x[5][3] x[6][4] x[7][5] </args>
      <args> x[3][0] x[4][1] x[5][2] x[6][3] x[7][4] </args>
      <args> x[4][0] x[5][1] x[6][2] x[7][3] </args>
      <args> x[5][0] x[6][1] x[7][2] </args>
      <args> x[6][0] x[7][1] </args>
    </group>
    <cardinality note="counting an ensuring the same number of queens of each color">
      <list> x[][] </list>
      <values> 1 2 3 </values>
      <occurs> z[] </occurs>
    </cardinality>
    <allEqual> z[] </allEqual>
    <block class="symmetry-breaking">
      <precedence>
        <list> x[][] </list>
        <values> 1 2 3 </values>
      </precedence>
      <lex>
        <list> x[][] </list>
        <list> x[][7] x[][6] x[][5] x[][4] x[][3] x[][2] x[][1] x[][0] </list>
        <operator> le </operator>
      </lex>
      <lex>
        <list> x[][] </list>
        <list> x[7][7] x[7][6] x[7][5] x[7][4] x[7][3] x[7][2] x[7][1] x[7][0] x[6][7] x[6][6] x[6][5] x[6][4] x[6][3] x[6][2] x[6][1] x[6][0] x[5][7] x[5][6] x[5][5] x[5][4] x[5][3] x[5][2] x[5][1] x[5][0] x[4][7] x[4][6] x[4][5] x[4][4] x[4][3] x[4][2] x[4][1] x[4][0] x[3][7] x[3][6] x[3][5] x[3][4] x[3][3] x[3][2] x[3][1] x[3][0] x[2][7] x[2][6] x[2][5] x[2][4] x[2][3] x[2][2] x[2][1] x[2][0] x[1][7] x[1][6] x[1][5] x[1][4] x[1][3] x[1][2] x[1][1] x[1][0] x[0][7] x[0][6] x[0][5] x[0][4] x[0][3] x[0][2] x[0][1] x[0][0] </list>
        <operator> le </operator>
      </lex>
      <lex>
        <list> x[][] </list>
        <list> x[7][0] x[6][0] x[5][0] x[4][0] x[3][0] x[2][0] x[1][0] x[0][0] x[7][1] x[6][1] x[5][1] x[4][1] x[3][1] x[2][1] x[1][1] x[0][1] x[7][2] x[6][2] x[5][2] x[4][2] x[3][2] x[2][2] x[1][2] x[0][2] x[7][3] x[6][3] x[5][3] x[4][3] x[3][3] x[2][3] x[1][3] x[0][3] x[7][4] x[6][4] x[5][4] x[4][4] x[3][4] x[2][4] x[1][4] x[0][4] x[7][5] x[6][5] x[5][5] x[4][5] x[3][5] x[2][5] x[1][5] x[0][5] x[7][6] x[6][6] x[5][6] x[4][6] x[3][6] x[2][6] x[1][6] x[0][6] x[7][7] x[6][7] x[5][7] x[4][7] x[3][7] x[2][7] x[1][7] x[0][7] </list>
        <operator> le </operator>
      </lex>
      <lex>
        <list> x[][] </list>
        <list> x[7][] x[6][] x[5][] x[4][] x[3][] x[2][] x[1][] x[0][] </list>
        <operator> le </operator>
      </lex>
      <lex>
        <list> x[][] </list>
        <list> x[0][7] x[0][6] x[0][5] x[0][4] x[0][3] x[0][2] x[0][1] x[0][0] x[1][7] x[1][6] x[1][5] x[1][4] x[1][3] x[1][2] x[1][1] x[1][0] x[2][7] x[2][6] x[2][5] x[2][4] x[2][3] x[2][2] x[2][1] x[2][0] x[3][7] x[3][6] x[3][5] x[3][4] x[3][3] x[3][2] x[3][1] x[3][0] x[4][7] x[4][6] x[4][5] x[4][4] x[4][3] x[4][2] x[4][1] x[4][0] x[5][7] x[5][6] x[5][5] x[5][4] x[5][3] x[5][2] x[5][1] x[5][0] x[6][7] x[6][6] x[6][5] x[6][4] x[6][3] x[6][2] x[6][1] x[6][0] x[7][7] x[7][6] x[7][5] x[7][4] x[7][3] x[7][2] x[7][1] x[7][0] </list>
        <operator> le </operator>
      </lex>
      <lex>
        <list> x[][] </list>
        <list> x[][0] x[][1] x[][2] x[][3] x[][4] x[][5] x[][6] x[][7] </list>
        <operator> le </operator>
      </lex>
      <lex>
        <list> x[][] </list>
        <list> x[7][7] x[6][7] x[5][7] x[4][7] x[3][7] x[2][7] x[1][7] x[0][7] x[7][6] x[6][6] x[5][6] x[4][6] x[3][6] x[2][6] x[1][6] x[0][6] x[7][5] x[6][5] x[5][5] x[4][5] x[3][5] x[2][5] x[1][5] x[0][5] x[7][4] x[6][4] x[5][4] x[4][4] x[3][4] x[2][4] x[1][4] x[0][4] x[7][3] x[6][3] x[5][3] x[4][3] x[3][3] x[2][3] x[1][3] x[0][3] x[7][2] x[6][2] x[5][2] x[4][2] x[3][2] x[2][2] x[1][2] x[0][2] x[7][1] x[6][1] x[5][1] x[4][1] x[3][1] x[2][1] x[1][1] x[0][1] x[7][0] x[6][0] x[5][0] x[4][0] x[3][0] x[2][0] x[1][0] x[0][0] </list>
        <operator> le </operator>
      </lex>
      <lex>
        <list> x[][] </list>
        <list> x[7][0] x[6][0] x[5][0] x[4][0] x[3][0] x[2][0] x[1][0] x[0][0] x[7][1] x[6][1] x[5][1] x[4][1] x[3][1] x[2][1] x[1][1] x[0][1] x[7][2] x[6][2] x[5][2] x[4][2] x[3][2] x[2][2] x[1][2] x[0][2] x[7][3] x[6][3] x[5][3] x[4][3] x[3][3] x[2][3] x[1][3] x[0][3] x[7][4] x[6][4] x[5][4] x[4][4] x[3][4] x[2][4] x[1][4] x[0][4] x[7][5] x[6][5] x[5][5] x[4][5] x[3][5] x[2][5] x[1][5] x[0][5] x[7][6] x[6][6] x[5][6] x[4][6] x[3][6] x[2][6] x[1][6] x[0][6] x[7][7] x[6][7] x[5][7] x[4][7] x[3][7] x[2][7] x[1][7] x[0][7] </list>
        <operator> le </operator>
      </lex>
      <lex>
        <list> x[][] </list>
        <list> x[][7] x[][6] x[][5] x[][4] x[][3] x[][2] x[][1] x[][0] </list>
        <operator> le </operator>
      </lex>
      <lex>
        <list> x[][] </list>
        <list> x[7][7] x[7][6] x[7][5] x[7][4] x[7][3] x[7][2] x[7][1] x[7][0] x[6][7] x[6][6] x[6][5] x[6][4] x[6][3] x[6][2] x[6][1] x[6][0] x[5][7] x[5][6] x[5][5] x[5][4] x[5][3] x[5][2] x[5][1] x[5][0] x[4][7] x[4][6] x[4][5] x[4][4] x[4][3] x[4][2] x[4][1] x[4][0] x[3][7] x[3][6] x[3][5] x[3][4] x[3][3] x[3][2] x[3][1] x[3][0] x[2][7] x[2][6] x[2][5] x[2][4] x[2][3] x[2][2] x[2][1] x[2][0] x[1][7] x[1][6] x[1][5] x[1][4] x[1][3] x[1][2] x[1][1] x[1][0] x[0][7] x[0][6] x[0][5] x[0][4] x[0][3] x[0][2] x[0][1] x[0][0] </list>
        <operator> le </operator>
      </lex>
      <lex>
        <list> x[][] </list>
        <list> x[][0] x[][1] x[][2] x[][3] x[][4] x[][5] x[][6] x[][7] </list>
        <operator> le </operator>
      </lex>
      <lex>
        <list> x[][] </list>
        <list> x[7][7] x[6][7] x[5][7] x[4][7] x[3][7] x[2][7] x[1][7] x[0][7] x[7][6] x[6][6] x[5][6] x[4][6] x[3][6] x[2][6] x[1][6] x[0][6] x[7][5] x[6][5] x[5][5] x[4][5] x[3][5] x[2][5] x[1][5] x[0][5] x[7][4] x[6][4] x[5][4] x[4][4] x[3][4] x[2][4] x[1][4] x[0][4] x[7][3] x[6][3] x[5][3] x[4][3] x[3][3] x[2][3] x[1][3] x[0][3] x[7][2] x[6][2] x[5][2] x[4][2] x[3][2] x[2][2] x[1][2] x[0][2] x[7][1] x[6][1] x[5][1] x[4][1] x[3][1] x[2][1] x[1][1] x[0][1] x[7][0] x[6][0] x[5][0] x[4][0] x[3][0] x[2][0] x[1][0] x[0][0] </list>
        <operator> le </operator>
      </lex>
      <lex>
        <list> x[][] </list>
        <list> x[0][7] x[0][6] x[0][5] x[0][4] x[0][3] x[0][2] x[0][1] x[0][0] x[1][7] x[1][6] x[1][5] x[1][4] x[1][3] x[1][2] x[1][1] x[1][0] x[2][7] x[2][6] x[2][5] x[2][4] x[2][3] x[2][2] x[2][1] x[2][0] x[3][7] x[3][6] x[3][5] x[3][4] x[3][3] x[3][2] x[3][1] x[3][0] x[4][7] x[4][6] x[4][5] x[4][4] x[4][3] x[4][2] x[4][1] x[4][0] x[5][7] x[5][6] x[5][5] x[5][4] x[5][3] x[5][2] x[5][1] x[5][0] x[6][7] x[6][6] x[6][5] x[6][4] x[6][3] x[6][2] x[6][1] x[6][0] x[7][7] x[7][6] x[7][5] x[7][4] x[7][3] x[7][2] x[7][1] x[7][0] </list>
        <operator> le </operator>
      </lex>
      <lex>
        <list> x[][] </list>
        <list> x[7][] x[6][] x[5][] x[4][] x[3][] x[2][] x[1][] x[0][] </list>
        <operator> le </operator>
      </lex>
      <lex>
        <list> x[][] </list>
        <list> x[7][7] x[7][6] x[7][5] x[7][4] x[7][3] x[7][2] x[7][1] x[7][0] x[6][7] x[6][6] x[6][5] x[6][4] x[6][3] x[6][2] x[6][1] x[6][0] x[5][7] x[5][6] x[5][5] x[5][4] x[5][3] x[5][2] x[5][1] x[5][0] x[4][7] x[4][6] x[4][5] x[4][4] x[4][3] x[4][2] x[4][1] x[4][0] x[3][7] x[3][6] x[3][5] x[3][4] x[3][3] x[3][2] x[3][1] x[3][0] x[2][7] x[2][6] x[2][5] x[2][4] x[2][3] x[2][2] x[2][1] x[2][0] x[1][7] x[1][6] x[1][5] x[1][4] x[1][3] x[1][2] x[1][1] x[1][0] x[0][7] x[0][6] x[0][5] x[0][4] x[0][3] x[0][2] x[0][1] x[0][0] </list>
        <operator> le </operator>
      </lex>
      <lex>
        <list> x[][] </list>
        <list> x[7][0] x[6][0] x[5][0] x[4][0] x[3][0] x[2][0] x[1][0] x[0][0] x[7][1] x[6][1] x[5][1] x[4][1] x[3][1] x[2][1] x[1][1] x[0][1] x[7][2] x[6][2] x[5][2] x[4][2] x[3][2] x[2][2] x[1][2] x[0][2] x[7][3] x[6][3] x[5][3] x[4][3] x[3][3] x[2][3] x[1][3] x[0][3] x[7][4] x[6][4] x[5][4] x[4][4] x[3][4] x[2][4] x[1][4] x[0][4] x[7][5] x[6][5] x[5][5] x[4][5] x[3][5] x[2][5] x[1][5] x[0][5] x[7][6] x[6][6] x[5][6] x[4][6] x[3][6] x[2][6] x[1][6] x[0][6] x[7][7] x[6][7] x[5][7] x[4][7] x[3][7] x[2][7] x[1][7] x[0][7] </list>
        <operator> le </operator>
      </lex>
      <lex>
        <list> x[][] </list>
        <list> x[][7] x[][6] x[][5] x[][4] x[][3] x[][2] x[][1] x[][0] </list>
        <operator> le </operator>
      </lex>
      <lex>
        <list> x[][] </list>
        <list> x[0][7] x[0][6] x[0][5] x[0][4] x[0][3] x[0][2] x[0][1] x[0][0] x[1][7] x[1][6] x[1][5] x[1][4] x[1][3] x[1][2] x[1][1] x[1][0] x[2][7] x[2][6] x[2][5] x[2][4] x[2][3] x[2][2] x[2][1] x[2][0] x[3][7] x[3][6] x[3][5] x[3][4] x[3][3] x[3][2] x[3][1] x[3][0] x[4][7] x[4][6] x[4][5] x[4][4] x[4][3] x[4][2] x[4][1] x[4][0] x[5][7] x[5][6] x[5][5] x[5][4] x[5][3] x[5][2] x[5][1] x[5][0] x[6][7] x[6][6] x[6][5] x[6][4] x[6][3] x[6][2] x[6][1] x[6][0] x[7][7] x[7][6] x[7][5] x[7][4] x[7][3] x[7][2] x[7][1] x[7][0] </list>
        <operator> le </operator>
      </lex>
      <lex>
        <list> x[][] </list>
        <list> x[7][] x[6][] x[5][] x[4][] x[3][] x[2][] x[1][] x[0][] </list>
        <operator> le </operator>
      </lex>
      <lex>
        <list> x[][] </list>
        <list> x[7][7] x[6][7] x[5][7] x[4][7] x[3][7] x[2][7] x[1][7] x[0][7] x[7][6] x[6][6] x[5][6] x[4][6] x[3][6] x[2][6] x[1][6] x[0][6] x[7][5] x[6][5] x[5][5] x[4][5] x[3][5] x[2][5] x[1][5] x[0][5] x[7][4] x[6][4] x[5][4] x[4][4] x[3][4] x[2][4] x[1][4] x[0][4] x[7][3] x[6][3] x[5][3] x[4][3] x[3][3] x[2][3] x[1][3] x[0][3] x[7][2] x[6][2] x[5][2] x[4][2] x[3][2] x[2][2] x[1][2] x[0][2] x[7][1] x[6][1] x[5][1] x[4][1] x[3][1] x[2][1] x[1][1] x[0][1] x[7][0] x[6][0] x[5][0] x[4][0] x[3][0] x[2][0] x[1][0] x[0][0] </list>
        <operator> le </operator>
      </lex>
      <lex>
        <list> x[][] </list>
        <list> x[][0] x[][1] x[][2] x[][3] x[][4] x[][5] x[][6] x[][7] </list>
        <operator> le </operator>
      </lex>
      <lex>
        <list> x[][] </list>
        <list> x[][7] x[][6] x[][5] x[][4] x[][3] x[][2] x[][1] x[][0] </list>
        <operator> le </operator>
      </lex>
      <lex>
        <list> x[][] </list>
        <list> x[7][7] x[7][6] x[7][5] x[7][4] x[7][3] x[7][2] x[7][1] x[7][0] x[6][7] x[6][6] x[6][5] x[6][4] x[6][3] x[6][2] x[6][1] x[6][0] x[5][7] x[5][6] x[5][5] x[5][4] x[5][3] x[5][2] x[5][1] x[5][0] x[4][7] x[4][6] x[4][5] x[4][4] x[4][3] x[4][2] x[4][1] x[4][0] x[3][7] x[3][6] x[3][5] x[3][4] x[3][3] x[3][2] x[3][1] x[3][0] x[2][7] x[2][6] x[2][5] x[2][4] x[2][3] x[2][2] x[2][1] x[2][0] x[1][7] x[1][6] x[1][5] x[1][4] x[1][3] x[1][2] x[1][1] x[1][0] x[0][7] x[0][6] x[0][5] x[0][4] x[0][3] x[0][2] x[0][1] x[0][0] </list>
        <operator> le </operator>
      </lex>
      <lex>
        <list> x[][] </list>
        <list> x[7][0] x[6][0] x[5][0] x[4][0] x[3][0] x[2][0] x[1][0] x[0][0] x[7][1] x[6][1] x[5][1] x[4][1] x[3][1] x[2][1] x[1][1] x[0][1] x[7][2] x[6][2] x[5][2] x[4][2] x[3][2] x[2][2] x[1][2] x[0][2] x[7][3] x[6][3] x[5][3] x[4][3] x[3][3] x[2][3] x[1][3] x[0][3] x[7][4] x[6][4] x[5][4] x[4][4] x[3][4] x[2][4] x[1][4] x[0][4] x[7][5] x[6][5] x[5][5] x[4][5] x[3][5] x[2][5] x[1][5] x[0][5] x[7][6] x[6][6] x[5][6] x[4][6] x[3][6] x[2][6] x[1][6] x[0][6] x[7][7] x[6][7] x[5][7] x[4][7] x[3][7] x[2][7] x[1][7] x[0][7] </list>
        <operator> le </operator>
      </lex>
      <lex>
        <list> x[][] </list>
        <list> x[7][7] x[6][7] x[5][7] x[4][7] x[3][7] x[2][7] x[1][7] x[0][7] x[7][6] x[6][6] x[5][6] x[4][6] x[3][6] x[2][6] x[1][6] x[0][6] x[7][5] x[6][5] x[5][5] x[4][5] x[3][5] x[2][5] x[1][5] x[0][5] x[7][4] x[6][4] x[5][4] x[4][4] x[3][4] x[2][4] x[1][4] x[0][4] x[7][3] x[6][3] x[5][3] x[4][3] x[3][3] x[2][3] x[1][3] x[0][3] x[7][2] x[6][2] x[5][2] x[4][2] x[3][2] x[2][2] x[1][2] x[0][2] x[7][1] x[6][1] x[5][1] x[4][1] x[3][1] x[2][1] x[1][1] x[0][1] x[7][0] x[6][0] x[5][0] x[4][0] x[3][0] x[2][0] x[1][0] x[0][0] </list>
        <operator> le </operator>
      </lex>
      <lex>
        <list> x[][] </list>
        <list> x[][0] x[][1] x[][2] x[][3] x[][4] x[][5] x[][6] x[][7] </list>
        <operator> le </operator>
      </lex>
      <lex>
        <list> x[][] </list>
        <list> x[7][] x[6][] x[5][] x[4][] x[3][] x[2][] x[1][] x[0][] </list>
        <operator> le </operator>
      </lex>
      <lex>
        <list> x[][] </list>
        <list> x[0][7] x[0][6] x[0][5] x[0][4] x[0][3] x[0][2] x[0][1] x[0][0] x[1][7] x[1][6] x[1][5] x[1][4] x[1][3] x[1][2] x[1][1] x[1][0] x[2][7] x[2][6] x[2][5] x[2][4] x[2][3] x[2][2] x[2][1] x[2][0] x[3][7] x[3][6] x[3][5] x[3][4] x[3][3] x[3][2] x[3][1] x[3][0] x[4][7] x[4][6] x[4][5] x[4][4] x[4][3] x[4][2] x[4][1] x[4][0] x[5][7] x[5][6] x[5][5] x[5][4] x[5][3] x[5][2] x[5][1] x[5][0] x[6][7] x[6][6] x[6][5] x[6][4] x[6][3] x[6][2] x[6][1] x[6][0] x[7][7] x[7][6] x[7][5] x[7][4] x[7][3] x[7][2] x[7][1] x[7][0] </list>
        <operator> le </operator>
      </lex>
      <lex>
        <list> x[][] </list>
        <list> x[7][] x[6][] x[5][] x[4][] x[3][] x[2][] x[1][] x[0][] </list>
        <operator> le </operator>
      </lex>
      <lex>
        <list> x[][] </list>
        <list> x[][0] x[][1] x[][2] x[][3] x[][4] x[][5] x[][6] x[][7] </list>
        <operator> le </operator>
      </lex>
      <lex>
        <list> x[][] </list>
        <list> x[0][7] x[0][6] x[0][5] x[0][4] x[0][3] x[0][2] x[0][1] x[0][0] x[1][7] x[1][6] x[1][5] x[1][4] x[1][3] x[1][2] x[1][1] x[1][0] x[2][7] x[2][6] x[2][5] x[2][4] x[2][3] x[2][2] x[2][1] x[2][0] x[3][7] x[3][6] x[3][5] x[3][4] x[3][3] x[3][2] x[3][1] x[3][0] x[4][7] x[4][6] x[4][5] x[4][4] x[4][3] x[4][2] x[4][1] x[4][0] x[5][7] x[5][6] x[5][5] x[5][4] x[5][3] x[5][2] x[5][1] x[5][0] x[6][7] x[6][6] x[6][5] x[6][4] x[6][3] x[6][2] x[6][1] x[6][0] x[7][7] x[7][6] x[7][5] x[7][4] x[7][3] x[7][2] x[7][1] x[7][0] </list>
        <operator> le </operator>
      </lex>
      <lex>
        <list> x[][] </list>
        <list> x[7][7] x[6][7] x[5][7] x[4][7] x[3][7] x[2][7] x[1][7] x[0][7] x[7][6] x[6][6] x[5][6] x[4][6] x[3][6] x[2][6] x[1][6] x[0][6] x[7][5] x[6][5] x[5][5] x[4][5] x[3][5] x[2][5] x[1][5] x[0][5] x[7][4] x[6][4] x[5][4] x[4][4] x[3][4] x[2][4] x[1][4] x[0][4] x[7][3] x[6][3] x[5][3] x[4][3] x[3][3] x[2][3] x[1][3] x[0][3] x[7][2] x[6][2] x[5][2] x[4][2] x[3][2] x[2][2] x[1][2] x[0][2] x[7][1] x[6][1] x[5][1] x[4][1] x[3][1] x[2][1] x[1][1] x[0][1] x[7][0] x[6][0] x[5][0] x[4][0] x[3][0] x[2][0] x[1][0] x[0][0] </list>
        <operator> le </operator>
      </lex>
      <lex>
        <list> x[][] </list>
        <list> x[7][7] x[7][6] x[7][5] x[7][4] x[7][3] x[7][2] x[7][1] x[7][0] x[6][7] x[6][6] x[6][5] x[6][4] x[6][3] x[6][2] x[6][1] x[6][0] x[5][7] x[5][6] x[5][5] x[5][4] x[5][3] x[5][2] x[5][1] x[5][0] x[4][7] x[4][6] x[4][5] x[4][4] x[4][3] x[4][2] x[4][1] x[4][0] x[3][7] x[3][6] x[3][5] x[3][4] x[3][3] x[3][2] x[3][1] x[3][0] x[2][7] x[2][6] x[2][5] x[2][4] x[2][3] x[2][2] x[2][1] x[2][0] x[1][7] x[1][6] x[1][5] x[1][4] x[1][3] x[1][2] x[1][1] x[1][0] x[0][7] x[0][6] x[0][5] x[0][4] x[0][3] x[0][2] x[0][1] x[0][0] </list>
        <operator> le </operator>
      </lex>
      <lex>
        <list> x[][] </list>
        <list> x[][7] x[][6] x[][5] x[][4] x[][3] x[][2] x[][1] x[][0] </list>
        <operator> le </operator>
      </lex>
      <lex>
        <list> x[][] </list>
        <list> x[7][0] x[6][0] x[5][0] x[4][0] x[3][0] x[2][0] x[1][0] x[0][0] x[7][1] x[6][1] x[5][1] x[4][1] x[3][1] x[2][1] x[1][1] x[0][1] x[7][2] x[6][2] x[5][2] x[4][2] x[3][2] x[2][2] x[1][2] x[0][2] x[7][3] x[6][3] x[5][3] x[4][3] x[3][3] x[2][3] x[1][3] x[0][3] x[7][4] x[6][4] x[5][4] x[4][4] x[3][4] x[2][4] x[1][4] x[0][4] x[7][5] x[6][5] x[5][5] x[4][5] x[3][5] x[2][5] x[1][5] x[0][5] x[7][6] x[6][6] x[5][6] x[4][6] x[3][6] x[2][6] x[1][6] x[0][6] x[7][7] x[6][7] x[5][7] x[4][7] x[3][7] x[2][7] x[1][7] x[0][7] </list>
        <operator> le </operator>
      </lex>
      <lex>
        <list> x[][] </list>
        <list> x[0][7] x[0][6] x[0][5] x[0][4] x[0][3] x[0][2] x[0][1] x[0][0] x[1][7] x[1][6] x[1][5] x[1][4] x[1][3] x[1][2] x[1][1] x[1][0] x[2][7] x[2][6] x[2][5] x[2][4] x[2][3] x[2][2] x[2][1] x[2][0] x[3][7] x[3][6] x[3][5] x[3][4] x[3][3] x[3][2] x[3][1] x[3][0] x[4][7] x[4][6] x[4][5] x[4][4] x[4][3] x[4][2] x[4][1] x[4][0] x[5][7] x[5][6] x[5][5] x[5][4] x[5][3] x[5][2] x[5][1] x[5][0] x[6][7] x[6][6] x[6][5] x[6][4] x[6][3] x[6][2] x[6][1] x[6][0] x[7][7] x[7][6] x[7][5] x[7][4] x[7][3] x[7][2] x[7][1] x[7][0] </list>
        <operator> le </operator>
      </lex>
      <lex>
        <list> x[][] </list>
        <list> x[7][7] x[6][7] x[5][7] x[4][7] x[3][7] x[2][7] x[1][7] x[0][7] x[7][6] x[6][6] x[5][6] x[4][6] x[3][6] x[2][6] x[1][6] x[0][6] x[7][5] x[6][5] x[5][5] x[4][5] x[3][5] x[2][5] x[1][5] x[0][5] x[7][4] x[6][4] x[5][4] x[4][4] x[3][4] x[2][4] x[1][4] x[0][4] x[7][3] x[6][3] x[5][3] x[4][3] x[3][3] x[2][3] x[1][3] x[0][3] x[7][2] x[6][2] x[5][2] x[4][2] x[3][2] x[2][2] x[1][2] x[0][2] x[7][1] x[6][1] x[5][1] x[4][1] x[3][1] x[2][1] x[1][1] x[0][1] x[7][0] x[6][0] x[5][0] x[4][0] x[3][0] x[2][0] x[1][0] x[0][0] </list>
        <operator> le </operator>
      </lex>
      <lex>
        <list> x[][] </list>
        <list> x[7][] x[6][] x[5][] x[4][] x[3][] x[2][] x[1][] x[0][] </list>
        <operator> le </operator>
      </lex>
      <lex>
        <list> x[][] </list>
        <list> x[][0] x[][1] x[][2] x[][3] x[][4] x[][5] x[][6] x[][7] </list>
        <operator> le </operator>
      </lex>
      <lex>
        <list> x[][] </list>
        <list> x[7][7] x[7][6] x[7][5] x[7][4] x[7][3] x[7][2] x[7][1] x[7][0] x[6][7] x[6][6] x[6][5] x[6][4] x[6][3] x[6][2] x[6][1] x[6][0] x[5][7] x[5][6] x[5][5] x[5][4] x[5][3] x[5][2] x[5][1] x[5][0] x[4][7] x[4][6] x[4][5] x[4][4] x[4][3] x[4][2] x[4][1] x[4][0] x[3][7] x[3][6] x[3][5] x[3][4] x[3][3] x[3][2] x[3][1] x[3][0] x[2][7] x[2][6] x[2][5] x[2][4] x[2][3] x[2][2] x[2][1] x[2][0] x[1][7] x[1][6] x[1][5] x[1][4] x[1][3] x[1][2] x[1][1] x[1][0] x[0][7] x[0][6] x[0][5] x[0][4] x[0][3] x[0][2] x[0][1] x[0][0] </list>
        <operator> le </operator>
      </lex>
      <lex>
        <list> x[][] </list>
        <list> x[7][0] x[6][0] x[5][0] x[4][0] x[3][0] x[2][0] x[1][0] x[0][0] x[7][1] x[6][1] x[5][1] x[4][1] x[3][1] x[2][1] x[1][1] x[0][1] x[7][2] x[6][2] x[5][2] x[4][2] x[3][2] x[2][2] x[1][2] x[0][2] x[7][3] x[6][3] x[5][3] x[4][3] x[3][3] x[2][3] x[1][3] x[0][3] x[7][4] x[6][4] x[5][4] x[4][4] x[3][4] x[2][4] x[1][4] x[0][4] x[7][5] x[6][5] x[5][5] x[4][5] x[3][5] x[2][5] x[1][5] x[0][5] x[7][6] x[6][6] x[5][6] x[4][6] x[3][6] x[2][6] x[1][6] x[0][6] x[7][7] x[6][7] x[5][7] x[4][7] x[3][7] x[2][7] x[1][7] x[0][7] </list>
        <operator> le </operator>
      </lex>
      <lex>
        <list> x[][] </list>
        <list> x[][7] x[][6] x[][5] x[][4] x[][3] x[][2] x[][1] x[][0] </list>
        <operator> le </operator>
      </lex>
      <lex>
        <list> x[][] </list>
        <list> x[][0] x[][1] x[][2] x[][3] x[][4] x[][5] x[][6] x[][7] </list>
        <operator> le </operator>
      </lex>
      <lex>
        <list> x[][] </list>
        <list> x[0][7] x[0][6] x[0][5] x[0][4] x[0][3] x[0][2] x[0][1] x[0][0] x[1][7] x[1][6] x[1][5] x[1][4] x[1][3] x[1][2] x[1][1] x[1][0] x[2][7] x[2][6] x[2][5] x[2][4] x[2][3] x[2][2] x[2][1] x[2][0] x[3][7] x[3][6] x[3][5] x[3][4] x[3][3] x[3][2] x[3][1] x[3][0] x[4][7] x[4][6] x[4][5] x[4][4] x[4][3] x[4][2] x[4][1] x[4][0] x[5][7] x[5][6] x[5][5] x[5][4] x[5][3] x[5][2] x[5][1] x[5][0] x[6][7] x[6][6] x[6][5] x[6][4] x[6][3] x[6][2] x[6][1] x[6][0] x[7][7] x[7][6] x[7][5] x[7][4] x[7][3] x[7][2] x[7][1] x[7][0] </list>
        <operator> le </operator>
      </lex>
      <lex>
        <list> x[][] </list>
        <list> x[7][7] x[6][7] x[5][7] x[4][7] x[3][7] x[2][7] x[1][7] x[0][7] x[7][6] x[6][6] x[5][6] x[4][6] x[3][6] x[2][6] x[1][6] x[0][6] x[7][5] x[6][5] x[5][5] x[4][5] x[3][5] x[2][5] x[1][5] x[0][5] x[7][4] x[6][4] x[5][4] x[4][4] x[3][4] x[2][4] x[1][4] x[0][4] x[7][3] x[6][3] x[5][3] x[4][3] x[3][3] x[2][3] x[1][3] x[0][3] x[7][2] x[6][2] x[5][2] x[4][2] x[3][2] x[2][2] x[1][2] x[0][2] x[7][1] x[6][1] x[5][1] x[4][1] x[3][1] x[2][1] x[1][1] x[0][1] x[7][0] x[6][0] x[5][0] x[4][0] x[3][0] x[2][0] x[1][0] x[0][0] </list>
        <operator> le </operator>
      </lex>
      <lex>
        <list> x[][] </list>
        <list> x[7][] x[6][] x[5][] x[4][] x[3][] x[2][] x[1][] x[0][] </list>
        <operator> le </operator>
      </lex>
      <lex>
        <list> x[][] </list>
        <list> x[7][0] x[6][0] x[5][0] x[4][0] x[3][0] x[2][0] x[1][0] x[0][0] x[7][1] x[6][1] x[5][1] x[4][1] x[3][1] x[2][1] x[1][1] x[0][1] x[7][2] x[6][2] x[5][2] x[4][2] x[3][2] x[2][2] x[1][2] x[0][2] x[7][3] x[6][3] x[5][3] x[4][3] x[3][3] x[2][3] x[1][3] x[0][3] x[7][4] x[6][4] x[5][4] x[4][4] x[3][4] x[2][4] x[1][4] x[0][4] x[7][5] x[6][5] x[5][5] x[4][5] x[3][5] x[2][5] x[1][5] x[0][5] x[7][6] x[6][6] x[5][6] x[4][6] x[3][6] x[2][6] x[1][6] x[0][6] x[7][7] x[6][7] x[5][7] x[4][7] x[3][7] x[2][7] x[1][7] x[0][7] </list>
        <operator> le </operator>
      </lex>
      <lex>
        <list> x[][] </list>
        <list> x[][7] x[][6] x[][5] x[][4] x[][3] x[][2] x[][1] x[][0] </list>
        <operator> le </operator>
      </lex>
      <lex>
        <list> x[][] </list>
        <list> x[7][7] x[7][6] x[7][5] x[7][4] x[7][3] x[7][2] x[7][1] x[7][0] x[6][7] x[6][6] x[6][5] x[6][4] x[6][3] x[6][2] x[6][1] x[6][0] x[5][7] x[5][6] x[5][5] x[5][4] x[5][3] x[5][2] x[5][1] x[5][0] x[4][7] x[4][6] x[4][5] x[4][4] x[4][3] x[4][2] x[4][1] x[4][0] x[3][7] x[3][6] x[3][5] x[3][4] x[3][3] x[3][2] x[3][1] x[3][0] x[2][7] x[2][6] x[2][5] x[2][4] x[2][3] x[2][2] x[2][1] x[2][0] x[1][7] x[1][6] x[1][5] x[1][4] x[1][3] x[1][2] x[1][1] x[1][0] x[0][7] x[0][6] x[0][5] x[0][4] x[0][3] x[0][2] x[0][1] x[0][0] </list>
        <operator> le </operator>
      </lex>
      <lex>
        <list> x[][] </list>
        <list> x[7][7] x[6][7] x[5][7] x[4][7] x[3][7] x[2][7] x[1][7] x[0][7] x[7][6] x[6][6] x[5][6] x[4][6] x[3][6] x[2][6] x[1][6] x[0][6] x[7][5] x[6][5] x[5][5] x[4][5] x[3][5] x[2][5] x[1][5] x[0][5] x[7][4] x[6][4] x[5][4] x[4][4] x[3][4] x[2][4] x[1][4] x[0][4] x[7][3] x[6][3] x[5][3] x[4][3] x[3][3] x[2][3] x[1][3] x[0][3] x[7][2] x[6][2] x[5][2] x[4][2] x[3][2] x[2][2] x[1][2] x[0][2] x[7][1] x[6][1] x[5][1] x[4][1] x[3][1] x[2][1] x[1][1] x[0][1] x[7][0] x[6][0] x[5][0] x[4][0] x[3][0] x[2][0] x[1][0] x[0][0] </list>
        <operator> le </operator>
      </lex>
      <lex>
        <list> x[][] </list>
        <list> x[7][] x[6][] x[5][] x[4][] x[3][] x[2][] x[1][] x[0][] </list>
        <operator> le </operator>
      </lex>
      <lex>
        <list> x[][] </list>
        <list> x[][0] x[][1] x[][2] x[][3] x[][4] x[][5] x[][6] x[][7] </list>
        <operator> le </operator>
      </lex>
      <lex>
        <list> x[][] </list>
        <list> x[0][7] x[0][6] x[0][5] x[0][4] x[0][3] x[0][2] x[0][1] x[0][0] x[1][7] x[1][6] x[1][5] x[1][4] x[1][3] x[1][2] x[1][1] x[1][0] x[2][7] x[2][6] x[2][5] x[2][4] x[2][3] x[2][2] x[2][1] x[2][0] x[3][7] x[3][6] x[3][5] x[3][4] x[3][3] x[3][2] x[3][1] x[3][0] x[4][7] x[4][6] x[4][5] x[4][4] x[4][3] x[4][2] x[4][1] x[4][0] x[5][7] x[5][6] x[5][5] x[5][4] x[5][3] x[5][2] x[5][1] x[5][0] x[6][7] x[6][6] x[6][5] x[6][4] x[6][3] x[6][2] x[6][1] x[6][0] x[7][7] x[7][6] x[7][5] x[7][4] x[7][3] x[7][2] x[7][1] x[7][0] </list>
        <operator> le </operator>
      </lex>
      <lex>
        <list> x[][] </list>
        <list> x[][7] x[][6] x[][5] x[][4] x[][3] x[][2] x[][1] x[][0] </list>
        <operator> le </operator>
      </lex>
      <lex>
        <list> x[][] </list>
        <list> x[7][0] x[6][0] x[5][0] x[4][0] x[3][0] x[2][0] x[1][0] x[0][0] x[7][1] x[6][1] x[5][1] x[4][1] x[3][1] x[2][1] x[1][1] x[0][1] x[7][2] x[6][2] x[5][2] x[4][2] x[3][2] x[2][2] x[1][2] x[0][2] x[7][3] x[6][3] x[5][3] x[4][3] x[3][3] x[2][3] x[1][3] x[0][3] x[7][4] x[6][4] x[5][4] x[4][4] x[3][4] x[2][4] x[1][4] x[0][4] x[7][5] x[6][5] x[5][5] x[4][5] x[3][5] x[2][5] x[1][5] x[0][5] x[7][6] x[6][6] x[5][6] x[4][6] x[3][6] x[2][6] x[1][6] x[0][6] x[7][7] x[6][7] x[5][7] x[4][7] x[3][7] x[2][7] x[1][7] x[0][7] </list>
        <operator> le </operator>
      </lex>
      <lex>
        <list> x[][] </list>
        <list> x[7][7] x[7][6] x[7][5] x[7][4] x[7][3] x[7][2] x[7][1] x[7][0] x[6][7] x[6][6] x[6][5] x[6][4] x[6][3] x[6][2] x[6][1] x[6][0] x[5][7] x[5][6] x[5][5] x[5][4] x[5][3] x[5][2] x[5][1] x[5][0] x[4][7] x[4][6] x[4][5] x[4][4] x[4][3] x[4][2] x[4][1] x[4][0] x[3][7] x[3][6] x[3][5] x[3][4] x[3][3] x[3][2] x[3][1] x[3][0] x[2][7] x[2][6] x[2][5] x[2][4] x[2][3] x[2][2] x[2][1] x[2][0] x[1][7] x[1][6] x[1][5] x[1][4] x[1][3] x[1][2] x[1][1] x[1][0] x[0][7] x[0][6] x[0][5] x[0][4] x[0][3] x[0][2] x[0][1] x[0][0] </list>
        <operator> le </operator>
      </lex>
    </block>
  </constraints>
  <objectives>
    <maximize note="maximizing the number of queens on the board"> z[0] </maximize>
  </objectives>
</instance>
